language ESSENCE' 1.0
letting lastdx=102
letting cage be [
[12,6,8,0,0, 0,0, 0,0, 0,0],
[27,3,3,4,3,5,3,5,4,0,0],
[23,15,6,15,7,14,7,13,7,0,0],
[15,5,16,0,0, 0,0, 0,0, 0,0],
[21,13,16,12,16,0,0, 0,0, 0,0],
[39,13,3,13,4,13,5,12,5,0,0],
[5,6,10,0,0, 0,0, 0,0, 0,0],
[18,1,8,1,9,2,9,0,0, 0,0],
[4,7,8,0,0, 0,0, 0,0, 0,0],
[37,7,12,7,11,8,11,9,11,0,0],
[36,8,16,9,16,9,15,0,0, 0,0],
[26,8,14,9,14,10,14,0,0, 0,0],
[29,3,1,3,2,2,2,2,1,0,0],
[7,12,2,0,0, 0,0, 0,0, 0,0],
[20,4,8,4,7,0,0, 0,0, 0,0],
[3,14,16,0,0, 0,0, 0,0, 0,0],
[15,4,9,0,0, 0,0, 0,0, 0,0],
[17,13,8,14,8,0,0, 0,0, 0,0],
[10,10,8,0,0, 0,0, 0,0, 0,0],
[23,5,13,5,12,0,0, 0,0, 0,0],
[19,15,9,16,9,0,0, 0,0, 0,0],
[9,6,15,0,0, 0,0, 0,0, 0,0],
[16,12,14,0,0, 0,0, 0,0, 0,0],
[44,8,2,8,3,7,3,7,4,6,4],
[29,7,10,8,10,8,9,9,9,9,10],
[10,14,6,0,0, 0,0, 0,0, 0,0],
[32,3,15,2,15,2,14,0,0, 0,0],
[1,2,16,0,0, 0,0, 0,0, 0,0],
[5,7,6,0,0, 0,0, 0,0, 0,0],
[24,1,10,2,10,0,0, 0,0, 0,0],
[50,14,4,14,3,14,2,14,1,0,0],
[31,12,10,11,10,11,11,11,12,0,0],
[23,16,14,16,13,16,12,0,0, 0,0],
[5,9,8,0,0, 0,0, 0,0, 0,0],
[12,16,6,0,0, 0,0, 0,0, 0,0],
[9,7,2,0,0, 0,0, 0,0, 0,0],
[24,6,2,6,3,0,0, 0,0, 0,0],
[53,12,9,13,9,13,10,13,11,12,11],
[24,6,11,6,12,6,13,0,0, 0,0],
[16,16,8,15,8,16,7,0,0, 0,0],
[4,14,11,0,0, 0,0, 0,0, 0,0],
[23,13,1,13,2,12,1,11,1,0,0],
[3,16,4,0,0, 0,0, 0,0, 0,0],
[12,10,10,0,0, 0,0, 0,0, 0,0],
[15,16,3,0,0, 0,0, 0,0, 0,0],
[14,8,8,0,0, 0,0, 0,0, 0,0],
[15,9,1,0,0, 0,0, 0,0, 0,0],
[4,3,12,0,0, 0,0, 0,0, 0,0],
[6,2,12,0,0, 0,0, 0,0, 0,0],
[30,7,7,8,7,8,6,8,5,0,0],
[34,14,5,15,5,16,5,0,0, 0,0],
[22,11,9,10,9,0,0, 0,0, 0,0],
[34,15,3,15,4,15,2,15,1,0,0],
[15,5,8,5,9,0,0, 0,0, 0,0],
[22,14,12,13,12,13,13,0,0, 0,0],
[7,8,12,0,0, 0,0, 0,0, 0,0],
[36,7,1,8,1,6,1,5,1,0,0],
[6,4,6,0,0, 0,0, 0,0, 0,0],
[39,2,4,2,3,1,3,0,0, 0,0],
[18,11,2,11,3,0,0, 0,0, 0,0],
[29,10,11,10,12,9,12,0,0, 0,0],
[17,2,11,1,11,0,0, 0,0, 0,0],
[7,6,16,0,0, 0,0, 0,0, 0,0],
[16,12,4,12,3,11,4,0,0, 0,0],
[21,11,7,11,8,12,8,0,0, 0,0],
[2,11,6,0,0, 0,0, 0,0, 0,0],
[48,2,6,2,7,1,7,1,6,0,0],
[25,9,4,8,4,0,0, 0,0, 0,0],
[42,9,7,10,7,10,6,9,6,0,0],
[12,3,13,0,0, 0,0, 0,0, 0,0],
[35,9,3,9,2,10,2,10,1,0,0],
[20,15,11,16,11,16,10,0,0, 0,0],
[15,10,5,9,5,11,5,0,0, 0,0],
[41,6,6,6,5,7,5,5,5,4,5],
[2,2,13,0,0, 0,0, 0,0, 0,0],
[8,14,13,14,14,0,0, 0,0, 0,0],
[9,1,1,1,2,0,0, 0,0, 0,0],
[10,1,12,0,0, 0,0, 0,0, 0,0],
[24,1,13,1,14,1,15,1,16,0,0],
[7,2,8,0,0, 0,0, 0,0, 0,0],
[9,3,4,4,4,0,0, 0,0, 0,0],
[5,3,5,0,0, 0,0, 0,0, 0,0],
[29,3,6,3,7,3,8,3,9,0,0],
[21,3,10,3,11,0,0, 0,0, 0,0],
[15,3,14,0,0, 0,0, 0,0, 0,0],
[36,3,16,4,16,4,15,4,14,0,0],
[13,4,1,0,0, 0,0, 0,0, 0,0],
[6,4,2,5,2,0,0, 0,0, 0,0],
[17,4,12,4,13,0,0, 0,0, 0,0],
[21,5,6,5,7,6,7,0,0, 0,0],
[13,5,14,5,15,0,0, 0,0, 0,0],
[14,6,9,7,9,0,0, 0,0, 0,0],
[37,6,14,7,14,7,15,7,16,8,15],
[20,7,13,8,13,9,13,10,13,0,0],
[20,10,3,10,4,0,0, 0,0, 0,0],
[22,10,15,10,16,11,16,11,15,0,0],
[37,12,6,12,7,13,6,0,0, 0,0],
[6,12,15,0,0, 0,0, 0,0, 0,0],
[41,13,14,13,15,14,15,15,15,0,0],
[21,14,9,14,10,15,10,0,0, 0,0],
[30,15,12,15,13,15,14,0,0, 0,0],
[34,15,16,16,16,16,15,0,0, 0,0],
[12,16,1,16,2,0,0, 0,0, 0,0]
]
